c File: data_files/evolved_graphs/g3669.col
c
c Auto generated graph
c
p edge 100 1454
e 1 2
e 1 4
e 1 5
e 1 6
e 1 7
e 1 15
e 1 17
e 1 25
e 1 30
e 1 39
e 1 41
e 1 42
e 1 72
e 1 88
e 1 89
e 1 99
e 2 3
e 2 5
e 2 6
e 2 20
e 2 26
e 2 36
e 2 37
e 2 42
e 2 43
e 2 52
e 2 53
e 2 59
e 2 60
e 2 61
e 2 71
e 2 84
e 2 86
e 2 90
e 3 4
e 3 6
e 3 7
e 3 11
e 3 15
e 3 17
e 3 18
e 3 21
e 3 24
e 3 26
e 3 35
e 3 40
e 3 42
e 3 50
e 3 59
e 3 61
e 3 65
e 3 68
e 3 78
e 3 82
e 3 84
e 3 89
e 3 97
e 4 6
e 4 8
e 4 10
e 4 23
e 4 31
e 4 38
e 4 43
e 4 59
e 4 79
e 5 6
e 5 7
e 5 15
e 5 18
e 5 33
e 5 37
e 5 43
e 5 62
e 5 66
e 5 78
e 6 7
e 6 9
e 6 11
e 6 18
e 6 19
e 6 24
e 6 32
e 6 43
e 6 50
e 6 60
e 6 63
e 6 67
e 6 71
e 6 72
e 6 81
e 6 94
e 7 9
e 7 11
e 7 24
e 7 25
e 7 27
e 7 31
e 7 32
e 7 39
e 7 45
e 7 46
e 7 49
e 7 50
e 7 52
e 7 64
e 7 80
e 7 85
e 8 9
e 8 10
e 8 11
e 8 12
e 8 18
e 8 19
e 8 22
e 8 23
e 8 26
e 8 27
e 8 29
e 8 30
e 8 31
e 8 32
e 8 33
e 8 40
e 8 41
e 8 44
e 8 46
e 8 47
e 8 50
e 8 52
e 8 59
e 8 66
e 8 80
e 8 96
e 9 10
e 9 12
e 9 13
e 9 14
e 9 20
e 9 21
e 9 22
e 9 26
e 9 29
e 9 31
e 9 32
e 9 34
e 9 37
e 9 39
e 9 42
e 9 43
e 9 47
e 9 49
e 9 52
e 9 53
e 10 12
e 10 13
e 10 16
e 10 17
e 10 19
e 10 20
e 10 23
e 10 24
e 10 25
e 10 26
e 10 27
e 10 29
e 10 30
e 10 32
e 10 33
e 10 34
e 10 36
e 10 37
e 10 39
e 10 41
e 10 43
e 10 47
e 10 48
e 10 49
e 10 51
e 10 52
e 10 61
e 10 72
e 10 76
e 10 78
e 10 88
e 10 97
e 11 19
e 11 20
e 11 21
e 11 23
e 11 25
e 11 28
e 11 29
e 11 30
e 11 31
e 11 32
e 11 33
e 11 34
e 11 35
e 11 36
e 11 37
e 11 40
e 11 42
e 11 44
e 11 45
e 11 47
e 11 48
e 11 52
e 11 82
e 12 13
e 12 14
e 12 15
e 12 16
e 12 17
e 12 24
e 12 25
e 12 28
e 12 29
e 12 30
e 12 34
e 12 35
e 12 36
e 12 41
e 12 43
e 12 44
e 12 45
e 12 46
e 12 47
e 12 49
e 12 50
e 12 52
e 12 73
e 12 83
e 13 14
e 13 17
e 13 18
e 13 19
e 13 21
e 13 22
e 13 25
e 13 28
e 13 30
e 13 32
e 13 37
e 13 39
e 13 41
e 13 43
e 13 45
e 13 46
e 13 47
e 13 48
e 13 50
e 13 51
e 13 52
e 13 54
e 13 56
e 13 57
e 13 66
e 13 86
e 14 16
e 14 18
e 14 19
e 14 22
e 14 23
e 14 26
e 14 27
e 14 28
e 14 29
e 14 30
e 14 33
e 14 35
e 14 36
e 14 37
e 14 39
e 14 41
e 14 42
e 14 43
e 14 44
e 14 45
e 14 47
e 14 48
e 14 50
e 14 52
e 14 69
e 14 78
e 15 16
e 15 17
e 15 19
e 15 22
e 15 23
e 15 24
e 15 25
e 15 27
e 15 28
e 15 30
e 15 31
e 15 32
e 15 34
e 15 35
e 15 36
e 15 37
e 15 42
e 15 43
e 15 45
e 15 46
e 15 47
e 15 49
e 15 50
e 15 51
e 15 52
e 16 18
e 16 20
e 16 21
e 16 22
e 16 24
e 16 29
e 16 38
e 16 39
e 16 40
e 16 41
e 16 43
e 16 45
e 16 46
e 16 47
e 16 48
e 16 49
e 16 50
e 16 52
e 16 84
e 17 21
e 17 22
e 17 23
e 17 24
e 17 25
e 17 28
e 17 31
e 17 33
e 17 34
e 17 35
e 17 36
e 17 38
e 17 39
e 17 41
e 17 42
e 17 45
e 17 47
e 17 49
e 17 51
e 17 70
e 17 71
e 17 73
e 17 82
e 18 20
e 18 21
e 18 24
e 18 25
e 18 26
e 18 27
e 18 28
e 18 29
e 18 30
e 18 31
e 18 35
e 18 36
e 18 37
e 18 38
e 18 39
e 18 42
e 18 43
e 18 45
e 18 46
e 18 47
e 18 48
e 18 49
e 18 50
e 18 51
e 18 59
e 18 88
e 19 21
e 19 23
e 19 25
e 19 26
e 19 27
e 19 30
e 19 31
e 19 32
e 19 33
e 19 34
e 19 35
e 19 36
e 19 38
e 19 39
e 19 40
e 19 42
e 19 43
e 19 45
e 19 46
e 19 47
e 19 48
e 19 49
e 19 52
e 19 55
e 20 22
e 20 23
e 20 24
e 20 25
e 20 28
e 20 30
e 20 31
e 20 34
e 20 36
e 20 39
e 20 41
e 20 42
e 20 43
e 20 45
e 20 48
e 20 49
e 20 50
e 21 22
e 21 23
e 21 25
e 21 26
e 21 27
e 21 31
e 21 32
e 21 35
e 21 37
e 21 38
e 21 39
e 21 40
e 21 41
e 21 42
e 21 43
e 21 44
e 21 45
e 21 48
e 21 49
e 21 50
e 21 51
e 21 52
e 21 54
e 21 77
e 21 78
e 21 80
e 21 87
e 22 23
e 22 25
e 22 26
e 22 27
e 22 28
e 22 29
e 22 32
e 22 33
e 22 35
e 22 36
e 22 37
e 22 38
e 22 41
e 22 42
e 22 46
e 22 47
e 22 48
e 22 49
e 22 50
e 22 79
e 23 25
e 23 26
e 23 27
e 23 28
e 23 29
e 23 31
e 23 33
e 23 34
e 23 35
e 23 38
e 23 39
e 23 40
e 23 42
e 23 43
e 23 44
e 23 45
e 23 47
e 23 48
e 23 51
e 23 52
e 23 55
e 23 68
e 24 27
e 24 28
e 24 30
e 24 35
e 24 37
e 24 39
e 24 41
e 24 46
e 24 47
e 24 48
e 24 50
e 24 51
e 24 52
e 24 75
e 24 79
e 25 26
e 25 27
e 25 29
e 25 30
e 25 31
e 25 32
e 25 33
e 25 36
e 25 37
e 25 39
e 25 40
e 25 42
e 25 45
e 25 48
e 25 49
e 25 50
e 25 51
e 25 52
e 25 53
e 25 90
e 26 27
e 26 28
e 26 29
e 26 33
e 26 34
e 26 39
e 26 42
e 26 45
e 26 46
e 26 47
e 26 48
e 26 49
e 26 51
e 26 77
e 26 90
e 27 31
e 27 35
e 27 37
e 27 38
e 27 39
e 27 40
e 27 41
e 27 42
e 27 44
e 27 46
e 27 48
e 27 49
e 27 51
e 27 52
e 28 29
e 28 30
e 28 35
e 28 37
e 28 42
e 28 43
e 28 44
e 28 45
e 28 46
e 28 47
e 28 48
e 28 51
e 28 52
e 28 71
e 28 85
e 28 93
e 29 30
e 29 32
e 29 33
e 29 34
e 29 35
e 29 40
e 29 42
e 29 48
e 29 49
e 29 50
e 29 51
e 29 62
e 29 70
e 29 90
e 29 99
e 30 31
e 30 32
e 30 34
e 30 37
e 30 39
e 30 41
e 30 42
e 30 43
e 30 44
e 30 45
e 30 47
e 30 49
e 30 51
e 30 52
e 30 77
e 30 81
e 30 98
e 30 100
e 31 32
e 31 33
e 31 35
e 31 36
e 31 38
e 31 39
e 31 41
e 31 42
e 31 43
e 31 44
e 31 45
e 31 47
e 31 48
e 31 49
e 31 57
e 31 78
e 32 34
e 32 35
e 32 36
e 32 37
e 32 38
e 32 42
e 32 46
e 32 47
e 32 48
e 32 50
e 32 51
e 32 52
e 32 55
e 32 56
e 33 34
e 33 36
e 33 40
e 33 42
e 33 43
e 33 45
e 33 46
e 33 47
e 33 48
e 33 50
e 33 51
e 33 52
e 33 60
e 33 63
e 33 92
e 34 35
e 34 36
e 34 37
e 34 39
e 34 41
e 34 42
e 34 43
e 34 44
e 34 47
e 34 48
e 34 49
e 34 50
e 34 51
e 34 52
e 34 66
e 35 40
e 35 42
e 35 43
e 35 44
e 35 45
e 35 46
e 35 47
e 35 48
e 35 49
e 35 50
e 35 51
e 35 57
e 35 78
e 36 38
e 36 40
e 36 41
e 36 42
e 36 43
e 36 44
e 36 47
e 36 48
e 36 49
e 36 51
e 36 52
e 36 55
e 36 68
e 36 74
e 36 88
e 36 90
e 37 38
e 37 39
e 37 41
e 37 42
e 37 43
e 37 44
e 37 45
e 37 47
e 37 48
e 37 49
e 37 50
e 37 51
e 37 52
e 38 39
e 38 41
e 38 42
e 38 45
e 38 48
e 38 49
e 38 50
e 38 51
e 38 52
e 38 74
e 38 85
e 38 95
e 39 40
e 39 41
e 39 49
e 39 50
e 39 51
e 39 76
e 39 90
e 39 93
e 40 41
e 40 44
e 40 47
e 40 48
e 40 49
e 40 51
e 41 42
e 41 44
e 41 47
e 41 48
e 41 49
e 41 50
e 41 51
e 41 52
e 41 61
e 41 80
e 41 95
e 42 44
e 42 45
e 42 48
e 42 50
e 43 45
e 43 46
e 43 47
e 43 48
e 43 49
e 43 52
e 44 46
e 44 47
e 44 48
e 44 49
e 44 51
e 44 52
e 44 77
e 44 95
e 45 46
e 45 47
e 45 48
e 45 49
e 45 50
e 45 51
e 45 99
e 46 47
e 46 53
e 46 55
e 46 56
e 46 59
e 46 67
e 46 70
e 46 79
e 46 82
e 46 88
e 46 93
e 46 96
e 46 97
e 47 49
e 47 50
e 47 51
e 47 52
e 47 53
e 47 54
e 47 58
e 47 59
e 47 61
e 47 66
e 47 69
e 47 74
e 47 76
e 47 77
e 47 79
e 47 81
e 47 84
e 47 86
e 47 88
e 47 89
e 47 96
e 47 98
e 47 99
e 48 49
e 48 50
e 48 53
e 48 57
e 48 58
e 48 59
e 48 60
e 48 63
e 48 67
e 48 68
e 48 69
e 48 70
e 48 71
e 48 74
e 48 76
e 48 77
e 48 78
e 48 79
e 48 81
e 48 84
e 48 85
e 48 86
e 48 87
e 48 89
e 48 90
e 48 91
e 48 93
e 48 95
e 48 96
e 48 97
e 49 50
e 49 53
e 49 56
e 49 58
e 49 59
e 49 61
e 49 65
e 49 66
e 49 67
e 49 68
e 49 69
e 49 71
e 49 72
e 49 74
e 49 77
e 49 78
e 49 80
e 49 83
e 49 84
e 49 85
e 49 86
e 49 87
e 49 89
e 49 90
e 49 91
e 49 93
e 49 95
e 49 98
e 50 51
e 50 52
e 50 53
e 50 54
e 50 55
e 50 56
e 50 57
e 50 59
e 50 62
e 50 64
e 50 65
e 50 67
e 50 69
e 50 70
e 50 71
e 50 72
e 50 73
e 50 74
e 50 75
e 50 76
e 50 78
e 50 79
e 50 80
e 50 83
e 50 84
e 50 87
e 50 89
e 50 90
e 50 94
e 50 96
e 51 52
e 51 53
e 51 55
e 51 56
e 51 58
e 51 59
e 51 60
e 51 62
e 51 64
e 51 65
e 51 66
e 51 67
e 51 68
e 51 70
e 51 71
e 51 73
e 51 75
e 51 76
e 51 77
e 51 82
e 51 84
e 51 88
e 51 89
e 51 97
e 51 99
e 52 54
e 52 55
e 52 56
e 52 58
e 52 59
e 52 60
e 52 61
e 52 63
e 52 67
e 52 68
e 52 69
e 52 71
e 52 74
e 52 75
e 52 76
e 52 78
e 52 80
e 52 82
e 52 84
e 52 85
e 52 86
e 52 88
e 52 94
e 52 99
e 53 54
e 53 57
e 53 58
e 53 59
e 53 61
e 53 62
e 53 63
e 53 64
e 53 66
e 53 67
e 53 68
e 53 69
e 53 70
e 53 73
e 53 74
e 53 75
e 53 76
e 53 78
e 53 79
e 53 80
e 53 81
e 53 82
e 53 83
e 53 85
e 53 86
e 53 88
e 53 90
e 53 99
e 54 57
e 54 58
e 54 61
e 54 62
e 54 63
e 54 64
e 54 65
e 54 66
e 54 67
e 54 68
e 54 69
e 54 70
e 54 71
e 54 72
e 54 73
e 54 74
e 54 75
e 54 76
e 54 78
e 54 79
e 54 80
e 54 81
e 54 83
e 54 85
e 54 86
e 54 87
e 54 88
e 54 100
e 55 56
e 55 57
e 55 58
e 55 59
e 55 60
e 55 62
e 55 63
e 55 64
e 55 65
e 55 67
e 55 68
e 55 69
e 55 70
e 55 71
e 55 72
e 55 76
e 55 77
e 55 81
e 55 82
e 55 84
e 55 87
e 55 89
e 55 99
e 56 57
e 56 59
e 56 61
e 56 62
e 56 63
e 56 64
e 56 66
e 56 68
e 56 69
e 56 70
e 56 71
e 56 72
e 56 73
e 56 74
e 56 77
e 56 78
e 56 81
e 56 82
e 56 83
e 56 85
e 56 86
e 56 88
e 56 90
e 56 98
e 56 100
e 57 59
e 57 63
e 57 68
e 57 70
e 57 71
e 57 74
e 57 75
e 57 76
e 57 83
e 57 84
e 57 85
e 57 87
e 57 89
e 57 91
e 57 92
e 57 98
e 58 59
e 58 61
e 58 63
e 58 65
e 58 67
e 58 68
e 58 69
e 58 71
e 58 77
e 58 78
e 58 79
e 58 80
e 58 84
e 58 85
e 58 86
e 58 87
e 58 88
e 58 90
e 58 91
e 59 61
e 59 63
e 59 64
e 59 65
e 59 66
e 59 68
e 59 69
e 59 70
e 59 72
e 59 74
e 59 75
e 59 76
e 59 77
e 59 78
e 59 85
e 59 87
e 59 90
e 59 93
e 60 61
e 60 62
e 60 63
e 60 64
e 60 66
e 60 67
e 60 68
e 60 71
e 60 72
e 60 73
e 60 75
e 60 78
e 60 79
e 60 81
e 60 82
e 60 84
e 60 85
e 60 86
e 60 89
e 60 90
e 60 91
e 60 92
e 60 95
e 60 98
e 61 62
e 61 63
e 61 64
e 61 65
e 61 67
e 61 68
e 61 70
e 61 71
e 61 73
e 61 76
e 61 78
e 61 79
e 61 81
e 61 82
e 61 83
e 61 85
e 61 86
e 61 88
e 61 93
e 62 64
e 62 65
e 62 66
e 62 67
e 62 68
e 62 73
e 62 74
e 62 75
e 62 77
e 62 80
e 62 82
e 62 83
e 62 84
e 62 88
e 62 89
e 62 95
e 62 97
e 62 98
e 62 99
e 62 100
e 63 64
e 63 66
e 63 69
e 63 72
e 63 74
e 63 75
e 63 76
e 63 77
e 63 78
e 63 79
e 63 83
e 63 84
e 63 87
e 63 88
e 63 89
e 63 90
e 63 95
e 63 96
e 64 65
e 64 66
e 64 68
e 64 70
e 64 71
e 64 74
e 64 84
e 64 85
e 64 87
e 64 88
e 64 89
e 64 95
e 64 97
e 64 99
e 64 100
e 65 66
e 65 68
e 65 69
e 65 71
e 65 73
e 65 74
e 65 76
e 65 77
e 65 78
e 65 79
e 65 80
e 65 81
e 65 82
e 65 83
e 65 85
e 65 87
e 65 88
e 65 89
e 65 90
e 65 94
e 65 95
e 65 97
e 65 98
e 65 100
e 66 69
e 66 70
e 66 71
e 66 73
e 66 74
e 66 76
e 66 77
e 66 81
e 66 82
e 66 83
e 66 85
e 66 86
e 66 87
e 66 88
e 66 89
e 66 90
e 66 92
e 66 93
e 66 96
e 66 97
e 66 99
e 67 69
e 67 70
e 67 73
e 67 75
e 67 77
e 67 79
e 67 80
e 67 83
e 67 84
e 67 86
e 67 87
e 67 88
e 67 89
e 67 91
e 67 93
e 67 99
e 68 72
e 68 73
e 68 74
e 68 75
e 68 76
e 68 77
e 68 81
e 68 83
e 68 88
e 68 89
e 68 90
e 69 73
e 69 74
e 69 77
e 69 80
e 69 83
e 69 84
e 69 85
e 69 89
e 69 90
e 69 96
e 69 98
e 69 99
e 70 71
e 70 73
e 70 76
e 70 77
e 70 80
e 70 81
e 70 82
e 70 83
e 70 85
e 70 87
e 70 88
e 70 89
e 70 94
e 70 99
e 71 72
e 71 73
e 71 74
e 71 75
e 71 79
e 71 80
e 71 82
e 71 83
e 71 84
e 71 86
e 71 87
e 71 88
e 71 97
e 71 98
e 72 74
e 72 76
e 72 77
e 72 78
e 72 82
e 72 85
e 72 86
e 72 87
e 72 88
e 72 89
e 72 93
e 72 96
e 72 98
e 72 99
e 73 76
e 73 77
e 73 78
e 73 80
e 73 86
e 73 87
e 73 90
e 74 75
e 74 76
e 74 78
e 74 80
e 74 84
e 74 85
e 74 88
e 74 89
e 74 96
e 74 98
e 75 76
e 75 77
e 75 78
e 75 79
e 75 80
e 75 81
e 75 82
e 75 83
e 75 84
e 75 85
e 75 86
e 75 87
e 75 88
e 75 89
e 75 95
e 76 77
e 76 80
e 76 81
e 76 83
e 76 85
e 76 87
e 76 88
e 76 90
e 76 91
e 76 93
e 76 94
e 76 95
e 76 98
e 77 78
e 77 80
e 77 81
e 77 82
e 77 83
e 77 85
e 77 86
e 77 88
e 77 90
e 77 95
e 77 97
e 77 98
e 78 80
e 78 81
e 78 83
e 78 84
e 78 85
e 78 87
e 78 88
e 78 89
e 78 97
e 78 98
e 79 84
e 79 87
e 79 99
e 80 81
e 80 82
e 80 83
e 80 84
e 80 85
e 80 87
e 80 89
e 81 86
e 81 88
e 81 89
e 81 96
e 81 97
e 82 83
e 82 86
e 82 87
e 82 90
e 82 96
e 82 98
e 82 99
e 83 84
e 83 85
e 83 86
e 83 87
e 83 89
e 83 90
e 83 91
e 83 94
e 83 96
e 84 85
e 84 86
e 84 88
e 84 89
e 84 90
e 84 97
e 84 99
e 84 100
e 85 98
e 86 87
e 86 88
e 86 89
e 86 94
e 86 98
e 86 99
e 87 90
e 87 91
e 88 90
e 88 91
e 88 98
e 88 100
e 89 97
e 89 98
e 92 99
e 93 97
e 93 99
e 94 95
e 94 97
e 94 99
e 94 100
e 95 96
e 95 97
e 95 98
e 96 98
e 96 99
e 96 100
e 97 100
e 98 100
e 99 100
